\ LP format - for model browsing. Use MPS format to capture full model detail.
Minimize
  cmax + 0 B_1_1_1_1_1_1 + 0 B_1_1_1_1_1_2 + 0 B_1_1_1_1_1_3
   + 0 B_1_1_1_1_2_1 + 0 B_1_1_1_1_2_2 + 0 B_1_1_1_2_1_2 + 0 B_1_1_1_2_1_3
   + 0 B_1_1_2_1_1_1 + 0 B_1_1_2_1_1_2 + 0 B_1_1_2_1_1_3 + 0 B_1_1_2_1_2_1
   + 0 B_1_1_2_1_2_2 + 0 B_1_1_2_2_1_1 + 0 B_1_1_2_2_1_3 + 0 B_1_1_3_1_1_1
   + 0 B_1_1_3_1_1_2 + 0 B_1_1_3_1_1_3 + 0 B_1_1_3_1_2_1 + 0 B_1_1_3_1_2_2
   + 0 B_1_1_3_2_1_1 + 0 B_1_1_3_2_1_2 + 0 B_1_2_1_1_1_1 + 0 B_1_2_1_1_1_2
   + 0 B_1_2_1_1_1_3 + 0 B_1_2_1_1_2_1 + 0 B_1_2_1_1_2_2 + 0 B_1_2_1_2_1_1
   + 0 B_1_2_1_2_1_2 + 0 B_1_2_1_2_1_3 + 0 B_1_2_2_1_1_1 + 0 B_1_2_2_1_1_2
   + 0 B_1_2_2_1_1_3 + 0 B_1_2_2_1_2_1 + 0 B_1_2_2_1_2_2 + 0 B_1_2_2_2_1_1
   + 0 B_1_2_2_2_1_2 + 0 B_1_2_2_2_1_3 + 0 B_2_1_1_1_1_1 + 0 B_2_1_1_1_1_2
   + 0 B_2_1_1_1_1_3 + 0 B_2_1_1_1_2_1 + 0 B_2_1_1_1_2_2 + 0 B_2_1_1_2_1_1
   + 0 B_2_1_1_2_1_2 + 0 B_2_1_1_2_1_3 + 0 B_2_1_2_1_1_1 + 0 B_2_1_2_1_1_2
   + 0 B_2_1_2_1_1_3 + 0 B_2_1_2_1_2_1 + 0 B_2_1_2_1_2_2 + 0 B_2_1_2_2_1_1
   + 0 B_2_1_2_2_1_2 + 0 B_2_1_2_2_1_3 + 0 B_2_1_3_1_1_1 + 0 B_2_1_3_1_1_2
   + 0 B_2_1_3_1_1_3 + 0 B_2_1_3_1_2_1 + 0 B_2_1_3_1_2_2 + 0 B_2_1_3_2_1_1
   + 0 B_2_1_3_2_1_2 + 0 B_2_1_3_2_1_3
Subject To
 NB2[1,1,1]: - x_1_1 + a_1_1_1_0 = 0
 NB2[1,1,2]: - x_1_1 + a_1_1_2_1 = 0
 NB2[1,1,3]: - x_1_1 + a_1_1_3_2 = 0
 NB2[1,2,1]: - x_1_2 + a_1_2_1_3 = 0
 NB2[1,2,2]: - x_1_2 + a_1_2_2_4 = 0
 NB2[2,1,1]: - x_2_1 + a_2_1_1_0 = 0
 NB2[2,1,2]: - x_2_1 + a_2_1_2_1 = 0
 NB2[2,1,3]: - x_2_1 + a_2_1_3_2 = 0
 NB3[1,1,2]: - t_1_1_1 + t_1_1_2 - 18 a_1_1_1_0 >= 0
 NB3[1,1,3]: - t_1_1_2 + t_1_1_3 - 19 a_1_1_2_1 >= 0
 NB3[1,2,2]: - t_1_2_1 + t_1_2_2 - 10 a_1_2_1_3 >= 0
 NB3[2,1,2]: - t_2_1_1 + t_2_1_2 - 6 a_2_1_1_0 >= 0
 NB3[2,1,3]: - t_2_1_2 + t_2_1_3 - 5 a_2_1_2_1 >= 0
 NB4: - t_1_1_1 + t_2_1_1 - 87 a_1_1_1_0 - 87 a_2_1_1_0 - 87 B_1_1_1_2_1_1
   >= -243
 NB5: t_1_1_1 - t_2_1_1 - 87 a_1_1_1_0 - 87 a_2_1_1_0 + 87 B_1_1_1_2_1_1
   >= -168
 NB4: - t_1_1_2 + t_2_1_2 - 87 a_1_1_2_1 - 87 a_2_1_2_1 - 87 B_1_1_2_2_1_2
   >= -242
 NB5: t_1_1_2 - t_2_1_2 - 87 a_1_1_2_1 - 87 a_2_1_2_1 + 87 B_1_1_2_2_1_2
   >= -169
 NB4: - t_1_1_3 + t_2_1_3 - 87 a_1_1_3_2 - 87 a_2_1_3_2 - 87 B_1_1_3_2_1_3
   >= -241
 NB5: t_1_1_3 - t_2_1_3 - 87 a_1_1_3_2 - 87 a_2_1_3_2 + 87 B_1_1_3_2_1_3
   >= -172
 NB6[1,1,1]: cmax - t_1_1_1 - 18 a_1_1_1_0 >= 0
 NB6[1,1,2]: cmax - t_1_1_2 - 19 a_1_1_2_1 >= 0
 NB6[1,1,3]: cmax - t_1_1_3 - 20 a_1_1_3_2 >= 0
 NB6[1,2,1]: cmax - t_1_2_1 - 10 a_1_2_1_3 >= 0
 NB6[1,2,2]: cmax - t_1_2_2 - 7 a_1_2_2_4 >= 0
 NB6[2,1,1]: cmax - t_2_1_1 - 6 a_2_1_1_0 >= 0
 NB6[2,1,2]: cmax - t_2_1_2 - 5 a_2_1_2_1 >= 0
 NB6[2,1,3]: cmax - t_2_1_3 - 2 a_2_1_3_2 >= 0
 NB7[1]: x_1_1 + x_1_2 = 1
 NB7[2]: x_2_1 = 1
 R29: - 87 x_1_1 + t_1_1_1 <= 0
 R30: - 87 x_1_1 + t_1_1_2 <= 0
 R31: - 87 x_1_1 + t_1_1_3 <= 0
 R32: - 87 x_1_2 + t_1_2_1 <= 0
 R33: - 87 x_1_2 + t_1_2_2 <= 0
 R34: - 87 x_2_1 + t_2_1_1 <= 0
 R35: - 87 x_2_1 + t_2_1_2 <= 0
 R36: - 87 x_2_1 + t_2_1_3 <= 0
Bounds
Binaries
 x_1_1 x_1_2 x_2_1 a_1_1_1_0 a_1_1_2_1 a_1_1_3_2 a_1_2_1_3 a_1_2_2_4
 a_2_1_1_0 a_2_1_2_1 a_2_1_3_2 B_1_1_1_1_1_1 B_1_1_1_1_1_2 B_1_1_1_1_1_3
 B_1_1_1_1_2_1 B_1_1_1_1_2_2 B_1_1_1_2_1_1 B_1_1_1_2_1_2 B_1_1_1_2_1_3
 B_1_1_2_1_1_1 B_1_1_2_1_1_2 B_1_1_2_1_1_3 B_1_1_2_1_2_1 B_1_1_2_1_2_2
 B_1_1_2_2_1_1 B_1_1_2_2_1_2 B_1_1_2_2_1_3 B_1_1_3_1_1_1 B_1_1_3_1_1_2
 B_1_1_3_1_1_3 B_1_1_3_1_2_1 B_1_1_3_1_2_2 B_1_1_3_2_1_1 B_1_1_3_2_1_2
 B_1_1_3_2_1_3 B_1_2_1_1_1_1 B_1_2_1_1_1_2 B_1_2_1_1_1_3 B_1_2_1_1_2_1
 B_1_2_1_1_2_2 B_1_2_1_2_1_1 B_1_2_1_2_1_2 B_1_2_1_2_1_3 B_1_2_2_1_1_1
 B_1_2_2_1_1_2 B_1_2_2_1_1_3 B_1_2_2_1_2_1 B_1_2_2_1_2_2 B_1_2_2_2_1_1
 B_1_2_2_2_1_2 B_1_2_2_2_1_3 B_2_1_1_1_1_1 B_2_1_1_1_1_2 B_2_1_1_1_1_3
 B_2_1_1_1_2_1 B_2_1_1_1_2_2 B_2_1_1_2_1_1 B_2_1_1_2_1_2 B_2_1_1_2_1_3
 B_2_1_2_1_1_1 B_2_1_2_1_1_2 B_2_1_2_1_1_3 B_2_1_2_1_2_1 B_2_1_2_1_2_2
 B_2_1_2_2_1_1 B_2_1_2_2_1_2 B_2_1_2_2_1_3 B_2_1_3_1_1_1 B_2_1_3_1_1_2
 B_2_1_3_1_1_3 B_2_1_3_1_2_1 B_2_1_3_1_2_2 B_2_1_3_2_1_1 B_2_1_3_2_1_2
 B_2_1_3_2_1_3
End
